(declare-const X String)
; /\u{2e}ttf([\?\u{5c}\u{2f}]|$)/smiU
(assert (not (str.in_re X (re.++ (str.to_re "/.ttf") (re.union (str.to_re "?") (str.to_re "\u{5c}") (str.to_re "/")) (str.to_re "/smiU\u{a}")))))
; /filename=[^\n]*\u{2e}oga/i
(assert (str.in_re X (re.++ (str.to_re "/filename=") (re.* (re.comp (str.to_re "\u{a}"))) (str.to_re ".oga/i\u{a}"))))
; software.*com\u{2F}index\.php\?tpid=\s+Host\u{3A}\u{2F}toolbar\u{2F}supremetb
(assert (str.in_re X (re.++ (str.to_re "software") (re.* re.allchar) (str.to_re "com/index.php?tpid=") (re.+ (re.union (str.to_re " ") (str.to_re "\u{9}") (str.to_re "\u{a}") (str.to_re "\u{c}") (str.to_re "\u{d}"))) (str.to_re "Host:/toolbar/supremetb\u{a}"))))
; (\d{4,6})
(assert (str.in_re X (re.++ ((_ re.loop 4 6) (re.range "0" "9")) (str.to_re "\u{a}"))))
; www\.actualnames\.com\s+toolbar_domain_redirect\s+Contactfrom=GhostVoiceServer
(assert (str.in_re X (re.++ (str.to_re "www.actualnames.com") (re.+ (re.union (str.to_re " ") (str.to_re "\u{9}") (str.to_re "\u{a}") (str.to_re "\u{c}") (str.to_re "\u{d}"))) (str.to_re "toolbar_domain_redirect") (re.+ (re.union (str.to_re " ") (str.to_re "\u{9}") (str.to_re "\u{a}") (str.to_re "\u{c}") (str.to_re "\u{d}"))) (str.to_re "Contactfrom=GhostVoiceServer\u{a}"))))
(check-sat)
